Route 1: 0 19 6 18 12 15 21 5 55 37 75 74 0
Route 2: 0 43 89 60 23 61 85 31 77 45 39 3 65 0
Route 3: 0 16 42 26 48 52 87 0
Route 4: 0 59 98 38 1 28 96 35 0
Route 5: 0 7 46 49 47 94 10 50 51 88 34 0
Route 6: 0 83 32 24 70 80 97 86 69 58 0
Route 7: 0 25 63 73 41 11 54 92 0
Route 8: 0 71 79 56 13 22 2 64 0
Route 9: 0 20 14 36 8 29 62 100 91 81 90 95 0
Route 10: 0 99 33 27 44 40 17 9 0
Route 11: 0 78 67 72 82 57 53 4 30 68 84 93 76 0
Route 12: 0 66 0
